p cnf 198 777
22 23 24 25 26 27 28 29 30 31 32 33 34 35 36 37 38 39 40 41 0
42 43 44 45 46 47 48 49 50 51 52 53 54 55 56 57 58 59 60 61 0
62 63 64 65 66 67 68 69 70 71 72 73 74 75 76 77 78 79 80 0
81 82 83 84 85 86 87 88 89 90 91 92 93 94 95 96 97 98 99 0
100 101 102 103 104 105 106 107 108 109 110 111 112 113 114 115 116 117 118 119 0
120 121 122 123 124 125 126 127 128 129 130 131 132 133 134 135 136 137 138 139 140 0
141 142 143 144 145 146 147 148 149 150 151 152 153 154 155 156 157 0
158 159 160 161 162 163 164 165 166 167 168 169 170 171 172 173 174 175 176 177 178 0
-1 -42 0
-1 -62 0
-1 -81 0
-1 -100 0
-1 -120 0
-1 -141 0
-1 -158 0
-1 -179 0
-42 -62 0
-42 -81 0
-42 -100 0
-42 -120 0
-42 -141 0
-42 -158 0
-42 -179 0
-62 -81 0
-62 -100 0
-62 -120 0
-62 -141 0
-62 -158 0
-62 -179 0
-81 -100 0
-81 -120 0
-81 -141 0
-81 -158 0
-81 -179 0
-100 -120 0
-100 -141 0
-100 -158 0
-100 -179 0
-120 -141 0
-120 -158 0
-120 -179 0
-141 -158 0
-141 -179 0
-158 -179 0
-2 -22 0
-2 -43 0
-2 -82 0
-2 -101 0
-2 -121 0
-2 -142 0
-2 -159 0
-2 -180 0
-22 -43 0
-22 -82 0
-22 -101 0
-22 -121 0
-22 -142 0
-22 -159 0
-22 -180 0
-43 -82 0
-43 -101 0
-43 -121 0
-43 -142 0
-43 -159 0
-43 -180 0
-82 -101 0
-82 -121 0
-82 -142 0
-82 -159 0
-82 -180 0
-101 -121 0
-101 -142 0
-101 -159 0
-101 -180 0
-121 -142 0
-121 -159 0
-121 -180 0
-142 -159 0
-142 -180 0
-159 -180 0
-3 -23 0
-3 -44 0
-3 -83 0
-3 -102 0
-3 -122 0
-3 -143 0
-3 -160 0
-3 -181 0
-23 -44 0
-23 -83 0
-23 -102 0
-23 -122 0
-23 -143 0
-23 -160 0
-23 -181 0
-44 -83 0
-44 -102 0
-44 -122 0
-44 -143 0
-44 -160 0
-44 -181 0
-83 -102 0
-83 -122 0
-83 -143 0
-83 -160 0
-83 -181 0
-102 -122 0
-102 -143 0
-102 -160 0
-102 -181 0
-122 -143 0
-122 -160 0
-122 -181 0
-143 -160 0
-143 -181 0
-160 -181 0
-4 -24 0
-4 -45 0
-4 -63 0
-4 -84 0
-4 -103 0
-4 -123 0
-4 -144 0
-4 -161 0
-4 -182 0
-24 -45 0
-24 -63 0
-24 -84 0
-24 -103 0
-24 -123 0
-24 -144 0
-24 -161 0
-24 -182 0
-45 -63 0
-45 -84 0
-45 -103 0
-45 -123 0
-45 -144 0
-45 -161 0
-45 -182 0
-63 -84 0
-63 -103 0
-63 -123 0
-63 -144 0
-63 -161 0
-63 -182 0
-84 -103 0
-84 -123 0
-84 -144 0
-84 -161 0
-84 -182 0
-103 -123 0
-103 -144 0
-103 -161 0
-103 -182 0
-123 -144 0
-123 -161 0
-123 -182 0
-144 -161 0
-144 -182 0
-161 -182 0
-5 -25 0
-5 -46 0
-5 -85 0
-5 -124 0
-5 -145 0
-5 -162 0
-5 -183 0
-25 -46 0
-25 -85 0
-25 -124 0
-25 -145 0
-25 -162 0
-25 -183 0
-46 -85 0
-46 -124 0
-46 -145 0
-46 -162 0
-46 -183 0
-85 -124 0
-85 -145 0
-85 -162 0
-85 -183 0
-124 -145 0
-124 -162 0
-124 -183 0
-145 -162 0
-145 -183 0
-162 -183 0
-6 -47 0
-6 -64 0
-6 -104 0
-6 -125 0
-6 -163 0
-47 -64 0
-47 -104 0
-47 -125 0
-47 -163 0
-64 -104 0
-64 -125 0
-64 -163 0
-104 -125 0
-104 -163 0
-125 -163 0
-7 -26 0
-7 -48 0
-7 -65 0
-7 -86 0
-7 -105 0
-7 -126 0
-7 -146 0
-7 -164 0
-7 -184 0
-26 -48 0
-26 -65 0
-26 -86 0
-26 -105 0
-26 -126 0
-26 -146 0
-26 -164 0
-26 -184 0
-48 -65 0
-48 -86 0
-48 -105 0
-48 -126 0
-48 -146 0
-48 -164 0
-48 -184 0
-65 -86 0
-65 -105 0
-65 -126 0
-65 -146 0
-65 -164 0
-65 -184 0
-86 -105 0
-86 -126 0
-86 -146 0
-86 -164 0
-86 -184 0
-105 -126 0
-105 -146 0
-105 -164 0
-105 -184 0
-126 -146 0
-126 -164 0
-126 -184 0
-146 -164 0
-146 -184 0
-164 -184 0
-8 -27 0
-8 -49 0
-8 -66 0
-8 -87 0
-8 -106 0
-8 -127 0
-8 -165 0
-8 -185 0
-27 -49 0
-27 -66 0
-27 -87 0
-27 -106 0
-27 -127 0
-27 -165 0
-27 -185 0
-49 -66 0
-49 -87 0
-49 -106 0
-49 -127 0
-49 -165 0
-49 -185 0
-66 -87 0
-66 -106 0
-66 -127 0
-66 -165 0
-66 -185 0
-87 -106 0
-87 -127 0
-87 -165 0
-87 -185 0
-106 -127 0
-106 -165 0
-106 -185 0
-127 -165 0
-127 -185 0
-165 -185 0
-9 -28 0
-9 -50 0
-9 -67 0
-9 -107 0
-9 -128 0
-9 -166 0
-9 -186 0
-28 -50 0
-28 -67 0
-28 -107 0
-28 -128 0
-28 -166 0
-28 -186 0
-50 -67 0
-50 -107 0
-50 -128 0
-50 -166 0
-50 -186 0
-67 -107 0
-67 -128 0
-67 -166 0
-67 -186 0
-107 -128 0
-107 -166 0
-107 -186 0
-128 -166 0
-128 -186 0
-166 -186 0
-10 -51 0
-10 -68 0
-10 -108 0
-10 -129 0
-10 -147 0
-10 -167 0
-10 -187 0
-51 -68 0
-51 -108 0
-51 -129 0
-51 -147 0
-51 -167 0
-51 -187 0
-68 -108 0
-68 -129 0
-68 -147 0
-68 -167 0
-68 -187 0
-108 -129 0
-108 -147 0
-108 -167 0
-108 -187 0
-129 -147 0
-129 -167 0
-129 -187 0
-147 -167 0
-147 -187 0
-167 -187 0
-11 -29 0
-11 -88 0
-11 -109 0
-11 -130 0
-11 -148 0
-11 -168 0
-29 -88 0
-29 -109 0
-29 -130 0
-29 -148 0
-29 -168 0
-88 -109 0
-88 -130 0
-88 -148 0
-88 -168 0
-109 -130 0
-109 -148 0
-109 -168 0
-130 -148 0
-130 -168 0
-148 -168 0
-12 -30 0
-12 -52 0
-12 -69 0
-12 -89 0
-12 -110 0
-12 -131 0
-12 -169 0
-12 -188 0
-30 -52 0
-30 -69 0
-30 -89 0
-30 -110 0
-30 -131 0
-30 -169 0
-30 -188 0
-52 -69 0
-52 -89 0
-52 -110 0
-52 -131 0
-52 -169 0
-52 -188 0
-69 -89 0
-69 -110 0
-69 -131 0
-69 -169 0
-69 -188 0
-89 -110 0
-89 -131 0
-89 -169 0
-89 -188 0
-110 -131 0
-110 -169 0
-110 -188 0
-131 -169 0
-131 -188 0
-169 -188 0
-31 -53 0
-31 -70 0
-31 -90 0
-31 -111 0
-31 -132 0
-31 -170 0
-31 -189 0
-53 -70 0
-53 -90 0
-53 -111 0
-53 -132 0
-53 -170 0
-53 -189 0
-70 -90 0
-70 -111 0
-70 -132 0
-70 -170 0
-70 -189 0
-90 -111 0
-90 -132 0
-90 -170 0
-90 -189 0
-111 -132 0
-111 -170 0
-111 -189 0
-132 -170 0
-132 -189 0
-170 -189 0
-13 -32 0
-13 -71 0
-13 -91 0
-13 -112 0
-13 -133 0
-13 -149 0
-13 -171 0
-13 -190 0
-32 -71 0
-32 -91 0
-32 -112 0
-32 -133 0
-32 -149 0
-32 -171 0
-32 -190 0
-71 -91 0
-71 -112 0
-71 -133 0
-71 -149 0
-71 -171 0
-71 -190 0
-91 -112 0
-91 -133 0
-91 -149 0
-91 -171 0
-91 -190 0
-112 -133 0
-112 -149 0
-112 -171 0
-112 -190 0
-133 -149 0
-133 -171 0
-133 -190 0
-149 -171 0
-149 -190 0
-171 -190 0
-14 -33 0
-14 -54 0
-14 -72 0
-14 -92 0
-14 -113 0
-14 -134 0
-14 -150 0
-14 -191 0
-33 -54 0
-33 -72 0
-33 -92 0
-33 -113 0
-33 -134 0
-33 -150 0
-33 -191 0
-54 -72 0
-54 -92 0
-54 -113 0
-54 -134 0
-54 -150 0
-54 -191 0
-72 -92 0
-72 -113 0
-72 -134 0
-72 -150 0
-72 -191 0
-92 -113 0
-92 -134 0
-92 -150 0
-92 -191 0
-113 -134 0
-113 -150 0
-113 -191 0
-134 -150 0
-134 -191 0
-150 -191 0
-15 -34 0
-15 -73 0
-15 -93 0
-15 -114 0
-15 -135 0
-34 -73 0
-34 -93 0
-34 -114 0
-34 -135 0
-73 -93 0
-73 -114 0
-73 -135 0
-93 -114 0
-93 -135 0
-114 -135 0
-16 -35 0
-16 -55 0
-16 -74 0
-16 -115 0
-16 -136 0
-16 -151 0
-16 -172 0
-16 -192 0
-35 -55 0
-35 -74 0
-35 -115 0
-35 -136 0
-35 -151 0
-35 -172 0
-35 -192 0
-55 -74 0
-55 -115 0
-55 -136 0
-55 -151 0
-55 -172 0
-55 -192 0
-74 -115 0
-74 -136 0
-74 -151 0
-74 -172 0
-74 -192 0
-115 -136 0
-115 -151 0
-115 -172 0
-115 -192 0
-136 -151 0
-136 -172 0
-136 -192 0
-151 -172 0
-151 -192 0
-172 -192 0
-17 -36 0
-17 -56 0
-17 -75 0
-17 -94 0
-17 -116 0
-17 -137 0
-17 -152 0
-17 -173 0
-17 -193 0
-36 -56 0
-36 -75 0
-36 -94 0
-36 -116 0
-36 -137 0
-36 -152 0
-36 -173 0
-36 -193 0
-56 -75 0
-56 -94 0
-56 -116 0
-56 -137 0
-56 -152 0
-56 -173 0
-56 -193 0
-75 -94 0
-75 -116 0
-75 -137 0
-75 -152 0
-75 -173 0
-75 -193 0
-94 -116 0
-94 -137 0
-94 -152 0
-94 -173 0
-94 -193 0
-116 -137 0
-116 -152 0
-116 -173 0
-116 -193 0
-137 -152 0
-137 -173 0
-137 -193 0
-152 -173 0
-152 -193 0
-173 -193 0
-37 -57 0
-37 -76 0
-37 -95 0
-37 -153 0
-37 -174 0
-37 -194 0
-57 -76 0
-57 -95 0
-57 -153 0
-57 -174 0
-57 -194 0
-76 -95 0
-76 -153 0
-76 -174 0
-76 -194 0
-95 -153 0
-95 -174 0
-95 -194 0
-153 -174 0
-153 -194 0
-174 -194 0
-18 -38 0
-18 -58 0
-18 -77 0
-18 -96 0
-18 -138 0
-18 -154 0
-18 -175 0
-18 -195 0
-38 -58 0
-38 -77 0
-38 -96 0
-38 -138 0
-38 -154 0
-38 -175 0
-38 -195 0
-58 -77 0
-58 -96 0
-58 -138 0
-58 -154 0
-58 -175 0
-58 -195 0
-77 -96 0
-77 -138 0
-77 -154 0
-77 -175 0
-77 -195 0
-96 -138 0
-96 -154 0
-96 -175 0
-96 -195 0
-138 -154 0
-138 -175 0
-138 -195 0
-154 -175 0
-154 -195 0
-175 -195 0
-19 -39 0
-19 -59 0
-19 -78 0
-19 -97 0
-19 -117 0
-19 -139 0
-19 -155 0
-19 -176 0
-19 -196 0
-39 -59 0
-39 -78 0
-39 -97 0
-39 -117 0
-39 -139 0
-39 -155 0
-39 -176 0
-39 -196 0
-59 -78 0
-59 -97 0
-59 -117 0
-59 -139 0
-59 -155 0
-59 -176 0
-59 -196 0
-78 -97 0
-78 -117 0
-78 -139 0
-78 -155 0
-78 -176 0
-78 -196 0
-97 -117 0
-97 -139 0
-97 -155 0
-97 -176 0
-97 -196 0
-117 -139 0
-117 -155 0
-117 -176 0
-117 -196 0
-139 -155 0
-139 -176 0
-139 -196 0
-155 -176 0
-155 -196 0
-176 -196 0
-20 -40 0
-20 -60 0
-20 -79 0
-20 -98 0
-20 -118 0
-20 -156 0
-20 -177 0
-20 -197 0
-40 -60 0
-40 -79 0
-40 -98 0
-40 -118 0
-40 -156 0
-40 -177 0
-40 -197 0
-60 -79 0
-60 -98 0
-60 -118 0
-60 -156 0
-60 -177 0
-60 -197 0
-79 -98 0
-79 -118 0
-79 -156 0
-79 -177 0
-79 -197 0
-98 -118 0
-98 -156 0
-98 -177 0
-98 -197 0
-118 -156 0
-118 -177 0
-118 -197 0
-156 -177 0
-156 -197 0
-177 -197 0
-21 -41 0
-21 -61 0
-21 -80 0
-21 -99 0
-21 -119 0
-21 -140 0
-21 -157 0
-21 -178 0
-21 -198 0
-41 -61 0
-41 -80 0
-41 -99 0
-41 -119 0
-41 -140 0
-41 -157 0
-41 -178 0
-41 -198 0
-61 -80 0
-61 -99 0
-61 -119 0
-61 -140 0
-61 -157 0
-61 -178 0
-61 -198 0
-80 -99 0
-80 -119 0
-80 -140 0
-80 -157 0
-80 -178 0
-80 -198 0
-99 -119 0
-99 -140 0
-99 -157 0
-99 -178 0
-99 -198 0
-119 -140 0
-119 -157 0
-119 -178 0
-119 -198 0
-140 -157 0
-140 -178 0
-140 -198 0
-157 -178 0
-157 -198 0
-178 -198 0
